Version identifier: 22.1.0.0 | 2022-03-09 | 1a383f8ce
CPXPARAM_Threads                                 1
CPXPARAM_MIP_Strategy_VariableSelect             3
CPXPARAM_TimeLimit                               599.64329579399998
1 of 1 MIP starts provided solutions.
MIP start 'm1' defined initial solution with objective 93.0000.
Tried aggregator 1 time.
MIP Presolve eliminated 19 rows and 0 columns.
MIP Presolve modified 235 coefficients.
Reduced MIP has 903 rows, 2100 columns, and 25030 nonzeros.
Reduced MIP has 2100 binaries, 0 generals, 0 SOSs, and 0 indicators.
Presolve time = 0.06 sec. (51.19 ticks)
Probing time = 0.01 sec. (7.99 ticks)
Tried aggregator 1 time.
Detecting symmetries...
MIP Presolve modified 14 coefficients.
Reduced MIP has 903 rows, 2100 columns, and 25429 nonzeros.
Reduced MIP has 2100 binaries, 0 generals, 0 SOSs, and 0 indicators.
Presolve time = 0.03 sec. (28.77 ticks)
Probing time = 0.01 sec. (8.05 ticks)
Clique table members: 593.
MIP emphasis: balance optimality and feasibility.
MIP search method: dynamic search.
Parallel mode: none, using 1 thread.
Root relaxation solution time = 0.13 sec. (114.42 ticks)

        Nodes                                         Cuts/
   Node  Left     Objective  IInf  Best Integer    Best Bound    ItCnt     Gap

*     0+    0                           93.0000     5050.0000              --- 
      0     0      100.0000   422       93.0000      100.0000     1362    7.53%
      0     0      100.0000   268       93.0000      Cuts: 22     2073    7.53%
      0     0      100.0000   259       93.0000      Cuts: 22     2507    7.53%
      0     0      100.0000   334       93.0000     Cuts: 112     3898    7.53%
      0     0      100.0000   170       93.0000      Cuts: 13     4282    7.53%
      0     0      100.0000   389       93.0000      Cuts: 98     5367    7.53%
Detecting symmetries...
*     0+    0                           96.0000      100.0000             4.17%
      0     0        cutoff             96.0000      100.0000     5367    4.17%
Detecting symmetries...
      0     2      100.0000   143       96.0000      100.0000     5367    4.17%
Elapsed time = 5.19 sec. (4744.08 ticks, tree = 0.01 MB, solutions = 2)
      1     3      100.0000   161       96.0000      100.0000     7848    4.17%
      3     5      100.0000   326       96.0000      100.0000    11280    4.17%
      6     8      100.0000   223       96.0000      100.0000    11739    4.17%
      9    11      100.0000   277       96.0000      100.0000    12633    4.17%
     10    12      100.0000   307       96.0000      100.0000    13018    4.17%
     12    14      100.0000   310       96.0000      100.0000    13608    4.17%
     15    17      100.0000   310       96.0000      100.0000    13888    4.17%
     18    20      100.0000   361       96.0000      100.0000    14576    4.17%
     21    23      100.0000   310       96.0000      100.0000    14895    4.17%
     30    32      100.0000   362       96.0000      100.0000    18114    4.17%
Elapsed time = 9.16 sec. (8679.88 ticks, tree = 0.23 MB, solutions = 2)
     39    41      100.0000   298       96.0000      100.0000    21498    4.17%
     44    46      100.0000   245       96.0000      100.0000    25105    4.17%
     51    49      100.0000   195       96.0000      100.0000    31565    4.17%
     61    57      100.0000   165       96.0000      100.0000    37805    4.17%
     69    63      100.0000   149       96.0000      100.0000    44018    4.17%
     79    67      100.0000   137       96.0000      100.0000    48620    4.17%
     89    67    infeasible             96.0000      100.0000    54998    4.17%
     98    70      100.0000   123       96.0000      100.0000    63619    4.17%
    108    72      100.0000   166       96.0000      100.0000    72146    4.17%
    125    75    infeasible             96.0000      100.0000    82106    4.17%
Elapsed time = 19.59 sec. (18569.00 ticks, tree = 0.51 MB, solutions = 2)
    138    78      100.0000   137       96.0000      100.0000    92860    4.17%
    149    79      100.0000   139       96.0000      100.0000   102268    4.17%
    158    84      100.0000   132       96.0000      100.0000   112479    4.17%
    167    81    infeasible             96.0000      100.0000   122578    4.17%
    181    77      100.0000   135       96.0000      100.0000   132943    4.17%
    193    79      100.0000   150       96.0000      100.0000   140531    4.17%
    207    79      100.0000   162       96.0000      100.0000   149103    4.17%
    217    79      100.0000   152       96.0000      100.0000   156969    4.17%
    225    79      100.0000   135       96.0000      100.0000   166673    4.17%
    234    80    infeasible             96.0000      100.0000   176857    4.17%
Elapsed time = 30.65 sec. (28807.06 ticks, tree = 0.52 MB, solutions = 2)
    241    81      100.0000   147       96.0000      100.0000   185213    4.17%
    251    81      100.0000   134       96.0000      100.0000   198434    4.17%
    260    80    infeasible             96.0000      100.0000   208972    4.17%
    271    81      100.0000   138       96.0000      100.0000   217497    4.17%
    283    81      100.0000   132       96.0000      100.0000   226359    4.17%
    295    81      100.0000   127       96.0000      100.0000   234547    4.17%
    305    79    infeasible             96.0000      100.0000   245650    4.17%
    315    79    infeasible             96.0000      100.0000   255995    4.17%
    325    83    infeasible             96.0000      100.0000   261906    4.17%
    338    86      100.0000   131       96.0000      100.0000   268615    4.17%
Elapsed time = 41.62 sec. (38980.07 ticks, tree = 0.57 MB, solutions = 2)
    352    86      100.0000   132       96.0000      100.0000   276408    4.17%
    369    87      100.0000   138       96.0000      100.0000   282785    4.17%
    381    92      100.0000   143       96.0000      100.0000   288542    4.17%
    393    92    infeasible             96.0000      100.0000   296889    4.17%
    408    86    infeasible             96.0000      100.0000   306728    4.17%
    421    87      100.0000   127       96.0000      100.0000   313289    4.17%
    434    88    infeasible             96.0000      100.0000   320940    4.17%
    445    91      100.0000   128       96.0000      100.0000   327709    4.17%
    461    91      100.0000   133       96.0000      100.0000   334272    4.17%
    473    91      100.0000   143       96.0000      100.0000   342860    4.17%
Elapsed time = 52.81 sec. (49186.26 ticks, tree = 0.62 MB, solutions = 2)
    487    91      100.0000   134       96.0000      100.0000   349991    4.17%
    501    91    infeasible             96.0000      100.0000   358123    4.17%
    516    90    infeasible             96.0000      100.0000   365828    4.17%
    527    93    infeasible             96.0000      100.0000   371953    4.17%
    538    94      100.0000   129       96.0000      100.0000   380250    4.17%
    550    94      100.0000   145       96.0000      100.0000   389233    4.17%
    559    93      100.0000   141       96.0000      100.0000   398037    4.17%
    570    94    infeasible             96.0000      100.0000   404060    4.17%
    583    94      100.0000   148       96.0000      100.0000   411969    4.17%
    592    93    infeasible             96.0000      100.0000   421254    4.17%
Elapsed time = 63.64 sec. (59124.24 ticks, tree = 0.65 MB, solutions = 2)
    608    97      100.0000   147       96.0000      100.0000   425103    4.17%
    626    97      100.0000   162       96.0000      100.0000   429471    4.17%
    643    98    infeasible             96.0000      100.0000   433913    4.17%
    663    96    infeasible             96.0000      100.0000   438243    4.17%
    680    97    infeasible             96.0000      100.0000   444001    4.17%
    699    98      100.0000   153       96.0000      100.0000   447411    4.17%
    715    98      100.0000   159       96.0000      100.0000   453217    4.17%
    726    93      100.0000   150       96.0000      100.0000   462219    4.17%
    738    93      100.0000   138       96.0000      100.0000   469853    4.17%
    748    93      100.0000   147       96.0000      100.0000   477858    4.17%
Elapsed time = 74.00 sec. (68996.91 ticks, tree = 0.66 MB, solutions = 2)
    757    92    infeasible             96.0000      100.0000   487380    4.17%
    765    92    infeasible             96.0000      100.0000   496807    4.17%
    776    93    infeasible             96.0000      100.0000   505541    4.17%
    789    96      100.0000   131       96.0000      100.0000   512299    4.17%
    801    95      100.0000   142       96.0000      100.0000   521869    4.17%
    813    95    infeasible             96.0000      100.0000   529975    4.17%
    829    95    infeasible             96.0000      100.0000   537474    4.17%
    839    97      100.0000   128       96.0000      100.0000   545754    4.17%
    850    98      100.0000   141       96.0000      100.0000   554606    4.17%
    862    98    infeasible             96.0000      100.0000   562923    4.17%
Elapsed time = 84.69 sec. (78970.84 ticks, tree = 0.66 MB, solutions = 2)
    877    97      100.0000   137       96.0000      100.0000   573378    4.17%
    888    95    infeasible             96.0000      100.0000   582559    4.17%
    899    96    infeasible             96.0000      100.0000   590587    4.17%
    910    99    infeasible             96.0000      100.0000   598113    4.17%
    921   100      100.0000   130       96.0000      100.0000   607533    4.17%
    929    98    infeasible             96.0000      100.0000   618578    4.17%
    943   100      100.0000   148       96.0000      100.0000   629224    4.17%
    951   100      100.0000   133       96.0000      100.0000   638924    4.17%
    965   100      100.0000   130       96.0000      100.0000   646691    4.17%
    979   100      100.0000   135       96.0000      100.0000   653943    4.17%
Elapsed time = 95.68 sec. (89195.60 ticks, tree = 0.67 MB, solutions = 2)
    991   100      100.0000   133       96.0000      100.0000   662263    4.17%
   1005   100      100.0000   146       96.0000      100.0000   671079    4.17%
   1018    99      100.0000   132       96.0000      100.0000   679986    4.17%
   1029   100      100.0000   137       96.0000      100.0000   689442    4.17%
   1043    98      100.0000   134       96.0000      100.0000   697919    4.17%
   1053    96    infeasible             96.0000      100.0000   708001    4.17%
   1063    98    infeasible             96.0000      100.0000   716038    4.17%
   1074    97    infeasible             96.0000      100.0000   725182    4.17%
   1086    95      100.0000   139       96.0000      100.0000   734024    4.17%
   1132   103      100.0000   133       96.0000      100.0000   764688    4.17%
Elapsed time = 109.78 sec. (102199.16 ticks, tree = 0.65 MB, solutions = 2)
   1178   103      100.0000   127       96.0000      100.0000   800691    4.17%
   1235   100      100.0000   125       96.0000      100.0000   833909    4.17%
   1283    98    infeasible             96.0000      100.0000   868651    4.17%
   1332    98    infeasible             96.0000      100.0000   900457    4.17%
   1386    98    infeasible             96.0000      100.0000   932591    4.17%
   1450    96      100.0000   152       96.0000      100.0000   962736    4.17%
   1496    97      100.0000   147       96.0000      100.0000   996193    4.17%
   1538   105    infeasible             96.0000      100.0000  1025712    4.17%
   1580    95      100.0000   147       96.0000      100.0000  1065883    4.17%
   1621    82    infeasible             96.0000      100.0000  1106248    4.17%
Elapsed time = 151.92 sec. (141156.77 ticks, tree = 0.55 MB, solutions = 2)
   1668    85      100.0000   141       96.0000      100.0000  1138520    4.17%
   1718    83      100.0000   143       96.0000      100.0000  1170653    4.17%
   1767    78      100.0000   155       96.0000      100.0000  1207117    4.17%
   1811    80      100.0000   119       96.0000      100.0000  1242465    4.17%
   1857    80      100.0000   140       96.0000      100.0000  1276860    4.17%
   1905    76      100.0000   139       96.0000      100.0000  1312845    4.17%
   1950    77    infeasible             96.0000      100.0000  1345014    4.17%
   1988    79      100.0000   139       96.0000      100.0000  1379380    4.17%
   2025    80      100.0000   134       96.0000      100.0000  1414678    4.17%
   2063   102      100.0000   141       96.0000      100.0000  1439649    4.17%
Elapsed time = 193.47 sec. (179864.26 ticks, tree = 0.54 MB, solutions = 2)
   2104   108    infeasible             96.0000      100.0000  1471193    4.17%
   2146   110    infeasible             96.0000      100.0000  1503299    4.17%
   2184   112    infeasible             96.0000      100.0000  1537757    4.17%
   2228   114      100.0000   145       96.0000      100.0000  1572183    4.17%
   2272   114    infeasible             96.0000      100.0000  1604958    4.17%
   2311   115      100.0000   150       96.0000      100.0000  1643178    4.17%
   2361   107      100.0000   153       96.0000      100.0000  1680723    4.17%
   2403   111      100.0000   131       96.0000      100.0000  1714854    4.17%
   2411   111      100.0000   150       96.0000      100.0000  1722721    4.17%
   2414   112      100.0000   129       96.0000      100.0000  1724912    4.17%
Elapsed time = 241.10 sec. (223869.17 ticks, tree = 0.57 MB, solutions = 2)

Performing restart 1

Repeating presolve.
Tried aggregator 1 time.
MIP Presolve eliminated 0 rows and 96 columns.
MIP Presolve modified 6 coefficients.
Reduced MIP has 903 rows, 2004 columns, and 18161 nonzeros.
Reduced MIP has 2004 binaries, 0 generals, 0 SOSs, and 0 indicators.
Presolve time = 0.01 sec. (9.72 ticks)
Tried aggregator 1 time.
Reduced MIP has 903 rows, 2004 columns, and 18161 nonzeros.
Reduced MIP has 2004 binaries, 0 generals, 0 SOSs, and 0 indicators.
Presolve time = 0.01 sec. (10.44 ticks)
Represolve time = 0.15 sec. (82.77 ticks)
   2415     0      100.0000   223       96.0000      Cuts: 16  1726997    4.17%
   2415     0      100.0000   241       96.0000      Cuts: 21  1727580    4.17%
   2415     0      100.0000   117       96.0000      Cuts: 10  1727811    4.17%
   2415     0      100.0000   281       96.0000      Cuts: 81  1728544    4.17%
*  2415+    0                          100.0000      100.0000             0.00%
   2415     0        cutoff            100.0000      100.0000  1728544    0.00%

Clique cuts applied:  7

Root node processing (before b&c):
  Real time             =    5.18 sec. (4733.39 ticks)
Sequential b&c:
  Real time             =  240.14 sec. (223141.98 ticks)
                          ------------
Total (root+branch&cut) =  245.32 sec. (227875.37 ticks)
Primal:	100
Dual:	100
Status:	Optimal
Time:	245.3
Sequence:
	12
	15
	3
	16
	13
	2
	16
	13
	2
	16
	13
	2
	16
	13
	9
	0
	13
	2
	16
	5
	11
	0
	8
	11
	19
	5
	11
	0
	18
	15
	12
	1
	8
	14
	6
	17
	11
	6
	17
	11
	3
	6
	10
	7
	3
	10
	3
	7
	10
	4
	1
	12
	2
	1
	12
	15
	1
	0
	14
	8
	19
	11
	5
	6
	11
	17
	6
	11
	17
	6
	11
	17
	6
	7
	10
	3
	7
	15
	4
	12
	8
	18
	12
	15
	18
	7
	10
	3
	7
	10
	4
	18
	12
	15
	18
	7
	10
	4
	7
	10
